#######################################
### Exact MIP solver for the HHCRSP ###
#######################################
-- Instance file: new-instances/HHCRSP_300_60_56_1.6_C_RC.txt
-- Max threads: 4
-- Time limit: 999999 seconds
-- Use initial solution: No
Trivial flow violations prevented generating 1228952 variables.
Version identifier: 20.1.0.0 | 2020-11-10 | 9bedb6d68
CPXPARAM_Threads                                 4
CPXPARAM_TimeLimit                               999999
Parallel mode: deterministic, using up to 4 threads for concurrent optimization:
 * Starting dual Simplex on 1 thread...
 * Starting Barrier on 3 threads...
Tried aggregator 1 time.
LP Presolve eliminated 49656 rows and 11646 columns.
Reduced LP has 1371570 rows, 1297431 columns, and 33198288 nonzeros.
Presolve time = 40.35 sec. (7189.09 ticks)
Symmetry aggregator did 2256222 additional substitutions.
Initializing dual steep norms . . .

Iteration log . . .
Iteration:     1   Dual objective     =             1.333333
Iteration:  1393   Dual objective     =           402.666667

Dual crossover.
  Dual:  Fixing 1932 variables.
     1931 DMoves:  Infeasibility  2.01605400e-12  Objective  4.02666667e+02
        0 DMoves:  Infeasibility  1.14436239e-12  Objective  4.02666667e+02
  Dual:  Pushed 35, exchanged 1897.
  Primal:  Fixing 1229 variables.
     1228 PMoves:  Infeasibility  1.38777878e-16  Objective  4.02666667e+02
        0 PMoves:  Infeasibility  6.66133815e-16  Objective  4.02666667e+02
  Primal:  Pushed 1088, exchanged 141.

Dual simplex solved model.


Solution status from MIP model:
-- Processing time: 66.569 sec.
-- Memory used: 1193.1 MB
-- Best bound: inf
-- Obj value: 402.667
-- Gap: inf%
-- Total distance: 1208
-- Total tardiness: 0
-- Largest tardiness: 0
